75
1 0 1
2 0 1
2 1 1
3 2 1
4 0 1
4 1 1
5 1 1
6 1 1
6 2 1
6 3 1
6 4 1
6 5 1
7 3 1
7 5 1
8 0 1
8 3 1
8 4 1
8 5 1
8 7 1
9 1 1
9 2 1
9 3 1
9 7 1
9 8 1
10 0 1
10 1 1
10 6 1
10 9 1
11 4 1
11 5 1
11 8 1
11 9 1
11 10 1
12 3 1
12 4 1
12 5 1
12 7 1
12 11 1
13 3 1
13 6 1
13 9 1
13 12 1
14 1 1
14 4 1
14 7 1
14 9 1
14 10 1
14 13 1
15 1 1
15 4 1
15 10 1
15 11 1
15 12 1
15 13 1
15 14 1
16 1 1
16 3 1
16 4 1
16 7 1
16 9 1
16 10 1
16 13 1
16 15 1
17 3 1
17 4 1
17 6 1
17 10 1
17 12 1
17 14 1
17 15 1
17 16 1
18 0 1
18 1 1
18 3 1
18 5 1
18 6 1
18 8 1
18 10 1
18 11 1
18 13 1
19 0 1
19 3 1
19 7 1
19 15 1
19 16 1
20 0 1
20 1 1
20 3 1
20 4 1
20 5 1
20 6 1
20 10 1
20 14 1
20 18 1
21 0 1
21 1 1
21 3 1
21 4 1
21 5 1
21 6 1
21 10 1
21 11 1
21 12 1
21 13 1
21 17 1
21 18 1
21 19 1
21 20 1
22 0 1
22 3 1
22 4 1
22 5 1
22 7 1
22 10 1
22 12 1
22 15 1
22 17 1
22 19 1
23 3 1
23 5 1
23 7 1
23 11 1
23 13 1
23 14 1
23 16 1
23 19 1
23 22 1
24 0 1
24 1 1
24 2 1
24 5 1
24 8 1
24 9 1
24 11 1
24 13 1
24 15 1
24 16 1
24 18 1
24 20 1
24 22 1
24 23 1
25 0 1
25 4 1
25 5 1
25 8 1
25 10 1
25 13 1
25 14 1
25 15 1
25 18 1
25 19 1
25 20 1
25 22 1
25 23 1
26 0 1
26 3 1
26 7 1
26 11 1
26 12 1
26 15 1
26 16 1
26 18 1
26 19 1
26 22 1
26 23 1
26 24 1
27 2 1
27 3 1
27 6 1
27 7 1
27 8 1
27 9 1
27 10 1
27 11 1
27 13 1
27 15 1
27 16 1
27 17 1
27 18 1
27 19 1
27 20 1
27 22 1
27 24 1
28 0 1
28 1 1
28 5 1
28 6 1
28 10 1
28 17 1
28 20 1
28 25 1
28 27 1
29 2 1
29 3 1
29 5 1
29 6 1
29 10 1
29 11 1
29 12 1
29 17 1
29 19 1
29 20 1
29 26 1
30 3 1
30 6 1
30 7 1
30 8 1
30 9 1
30 10 1
30 15 1
30 18 1
30 19 1
30 23 1
30 26 1
30 28 1
31 0 1
31 4 1
31 10 1
31 13 1
31 14 1
31 15 1
31 17 1
31 19 1
31 20 1
31 22 1
31 23 1
31 25 1
31 26 1
31 30 1
32 0 1
32 1 1
32 5 1
32 7 1
32 10 1
32 11 1
32 13 1
32 15 1
32 17 1
32 18 1
32 20 1
32 24 1
32 26 1
32 27 1
32 28 1
32 29 1
32 30 1
33 0 1
33 2 1
33 6 1
33 7 1
33 10 1
33 12 1
33 13 1
33 16 1
33 22 1
33 25 1
33 26 1
33 27 1
33 28 1
33 29 1
33 30 1
34 3 1
34 6 1
34 8 1
34 10 1
34 12 1
34 13 1
34 14 1
34 15 1
34 16 1
34 19 1
34 22 1
34 26 1
34 27 1
34 28 1
34 31 1
35 0 1
35 3 1
35 5 1
35 8 1
35 9 1
35 12 1
35 17 1
35 18 1
35 20 1
35 21 1
35 23 1
35 24 1
35 27 1
35 28 1
35 30 1
36 0 1
36 2 1
36 3 1
36 4 1
36 7 1
36 8 1
36 11 1
36 14 1
36 16 1
36 17 1
36 18 1
36 21 1
36 24 1
36 25 1
36 26 1
36 29 1
36 31 1
36 32 1
36 33 1
36 35 1
37 0 1
37 3 1
37 4 1
37 5 1
37 6 1
37 8 1
37 9 1
37 11 1
37 12 1
37 13 1
37 15 1
37 16 1
37 17 1
37 19 1
37 20 1
37 23 1
37 25 1
37 27 1
37 29 1
37 30 1
37 31 1
37 35 1
38 3 1
38 4 1
38 6 1
38 7 1
38 10 1
38 11 1
38 13 1
38 15 1
38 16 1
38 17 1
38 20 1
38 23 1
38 27 1
38 29 1
38 30 1
38 33 1
38 34 1
38 36 1
38 37 1
39 2 1
39 5 1
39 7 1
39 8 1
39 9 1
39 10 1
39 14 1
39 15 1
39 16 1
39 17 1
39 18 1
39 19 1
39 21 1
39 23 1
39 24 1
39 25 1
39 27 1
39 29 1
39 30 1
39 32 1
39 33 1
39 35 1
39 36 1
39 38 1
40 1 1
40 2 1
40 4 1
40 5 1
40 7 1
40 8 1
40 10 1
40 11 1
40 12 1
40 13 1
40 14 1
40 15 1
40 16 1
40 18 1
40 19 1
40 21 1
40 22 1
40 24 1
40 25 1
40 34 1
40 35 1
40 36 1
40 37 1
40 38 1
40 39 1
41 1 1
41 5 1
41 6 1
41 8 1
41 9 1
41 10 1
41 11 1
41 14 1
41 15 1
41 17 1
41 18 1
41 19 1
41 20 1
41 23 1
41 24 1
41 26 1
41 27 1
41 28 1
41 29 1
41 34 1
41 37 1
41 38 1
41 40 1
42 1 1
42 2 1
42 3 1
42 4 1
42 5 1
42 6 1
42 8 1
42 10 1
42 11 1
42 13 1
42 16 1
42 17 1
42 18 1
42 20 1
42 21 1
42 22 1
42 24 1
42 25 1
42 29 1
42 30 1
42 31 1
42 32 1
42 34 1
42 35 1
42 37 1
42 38 1
42 39 1
42 40 1
42 41 1
43 0 1
43 2 1
43 4 1
43 9 1
43 12 1
43 15 1
43 18 1
43 19 1
43 24 1
43 25 1
43 26 1
43 27 1
43 28 1
43 31 1
43 33 1
43 35 1
43 36 1
43 37 1
43 38 1
43 39 1
44 1 1
44 2 1
44 3 1
44 7 1
44 9 1
44 10 1
44 13 1
44 15 1
44 16 1
44 17 1
44 22 1
44 23 1
44 24 1
44 25 1
44 27 1
44 30 1
44 33 1
44 34 1
44 35 1
44 38 1
44 40 1
44 41 1
44 43 1
45 0 1
45 1 1
45 2 1
45 7 1
45 8 1
45 12 1
45 15 1
45 16 1
45 19 1
45 21 1
45 22 1
45 23 1
45 25 1
45 28 1
45 29 1
45 30 1
45 32 1
45 33 1
45 36 1
45 38 1
45 39 1
45 40 1
45 41 1
46 1 1
46 2 1
46 3 1
46 4 1
46 5 1
46 7 1
46 9 1
46 10 1
46 11 1
46 12 1
46 15 1
46 20 1
46 28 1
46 29 1
46 30 1
46 32 1
46 35 1
46 36 1
46 38 1
46 39 1
46 40 1
46 41 1
46 42 1
46 43 1
46 45 1
47 0 1
47 3 1
47 8 1
47 9 1
47 10 1
47 11 1
47 13 1
47 14 1
47 16 1
47 18 1
47 22 1
47 24 1
47 25 1
47 27 1
47 31 1
47 39 1
47 40 1
47 41 1
47 43 1
47 44 1
48 1 1
48 2 1
48 3 1
48 5 1
48 6 1
48 7 1
48 11 1
48 14 1
48 16 1
48 17 1
48 18 1
48 19 1
48 24 1
48 31 1
48 34 1
48 35 1
48 36 1
48 38 1
48 39 1
48 41 1
48 43 1
48 45 1
48 47 1
49 0 1
49 2 1
49 3 1
49 6 1
49 7 1
49 8 1
49 9 1
49 11 1
49 12 1
49 14 1
49 15 1
49 17 1
49 18 1
49 22 1
49 24 1
49 25 1
49 30 1
49 31 1
49 33 1
49 35 1
49 37 1
49 48 1
50 0 1
50 2 1
50 5 1
50 7 1
50 9 1
50 10 1
50 11 1
50 14 1
50 15 1
50 16 1
50 18 1
50 19 1
50 20 1
50 22 1
50 25 1
50 27 1
50 28 1
50 33 1
50 34 1
50 35 1
50 38 1
50 39 1
50 40 1
50 42 1
50 45 1
50 46 1
50 47 1
50 49 1
51 0 1
51 1 1
51 4 1
51 5 1
51 8 1
51 9 1
51 10 1
51 11 1
51 12 1
51 16 1
51 21 1
51 23 1
51 25 1
51 26 1
51 30 1
51 31 1
51 33 1
51 34 1
51 36 1
51 39 1
51 40 1
51 42 1
51 44 1
51 45 1
51 46 1
51 47 1
51 48 1
51 49 1
51 50 1
52 0 1
52 1 1
52 2 1
52 3 1
52 5 1
52 7 1
52 10 1
52 13 1
52 16 1
52 24 1
52 29 1
52 30 1
52 32 1
52 34 1
52 35 1
52 36 1
52 37 1
52 39 1
52 41 1
52 42 1
52 43 1
52 44 1
52 45 1
52 46 1
52 47 1
52 50 1
53 1 1
53 4 1
53 10 1
53 13 1
53 16 1
53 18 1
53 19 1
53 20 1
53 22 1
53 24 1
53 25 1
53 26 1
53 27 1
53 28 1
53 29 1
53 31 1
53 33 1
53 37 1
53 40 1
53 41 1
53 43 1
53 45 1
53 46 1
53 48 1
53 50 1
53 52 1
54 0 1
54 2 1
54 4 1
54 6 1
54 9 1
54 11 1
54 13 1
54 14 1
54 16 1
54 19 1
54 22 1
54 24 1
54 25 1
54 26 1
54 27 1
54 28 1
54 29 1
54 30 1
54 31 1
54 32 1
54 33 1
54 34 1
54 35 1
54 37 1
54 41 1
54 43 1
54 45 1
54 48 1
54 50 1
54 52 1
55 2 1
55 4 1
55 7 1
55 12 1
55 15 1
55 18 1
55 19 1
55 20 1
55 22 1
55 23 1
55 25 1
55 28 1
55 29 1
55 32 1
55 35 1
55 37 1
55 39 1
55 42 1
55 43 1
55 45 1
55 46 1
55 47 1
55 48 1
55 50 1
55 53 1
56 2 1
56 4 1
56 5 1
56 6 1
56 7 1
56 8 1
56 9 1
56 11 1
56 12 1
56 14 1
56 17 1
56 18 1
56 21 1
56 22 1
56 23 1
56 25 1
56 32 1
56 33 1
56 38 1
56 39 1
56 41 1
56 42 1
56 43 1
56 47 1
56 48 1
56 49 1
56 53 1
56 54 1
56 55 1
57 0 1
57 1 1
57 2 1
57 5 1
57 6 1
57 8 1
57 9 1
57 14 1
57 16 1
57 19 1
57 20 1
57 22 1
57 23 1
57 26 1
57 27 1
57 28 1
57 30 1
57 31 1
57 33 1
57 34 1
57 35 1
57 38 1
57 41 1
57 46 1
57 48 1
57 49 1
57 51 1
57 55 1
58 0 1
58 1 1
58 3 1
58 4 1
58 7 1
58 9 1
58 10 1
58 14 1
58 16 1
58 17 1
58 18 1
58 19 1
58 21 1
58 23 1
58 25 1
58 26 1
58 28 1
58 29 1
58 31 1
58 35 1
58 36 1
58 37 1
58 38 1
58 39 1
58 44 1
58 45 1
58 46 1
58 49 1
58 50 1
58 51 1
58 52 1
58 56 1
59 2 1
59 3 1
59 7 1
59 8 1
59 16 1
59 17 1
59 18 1
59 19 1
59 20 1
59 25 1
59 26 1
59 27 1
59 28 1
59 30 1
59 31 1
59 34 1
59 39 1
59 40 1
59 42 1
59 44 1
59 47 1
59 48 1
59 49 1
59 50 1
59 51 1
59 52 1
59 53 1
59 56 1
59 57 1
60 0 1
60 1 1
60 2 1
60 5 1
60 12 1
60 14 1
60 19 1
60 21 1
60 24 1
60 25 1
60 26 1
60 28 1
60 29 1
60 32 1
60 36 1
60 37 1
60 41 1
60 43 1
60 45 1
60 49 1
60 52 1
60 53 1
60 54 1
60 56 1
60 57 1
60 59 1
61 1 1
61 4 1
61 6 1
61 7 1
61 9 1
61 10 1
61 11 1
61 16 1
61 18 1
61 19 1
61 20 1
61 23 1
61 24 1
61 25 1
61 27 1
61 31 1
61 32 1
61 34 1
61 35 1
61 37 1
61 39 1
61 40 1
61 41 1
61 44 1
61 47 1
61 49 1
61 51 1
61 52 1
61 53 1
61 55 1
61 56 1
62 0 1
62 1 1
62 3 1
62 4 1
62 7 1
62 11 1
62 12 1
62 14 1
62 18 1
62 20 1
62 21 1
62 22 1
62 25 1
62 27 1
62 28 1
62 29 1
62 32 1
62 33 1
62 36 1
62 37 1
62 38 1
62 39 1
62 43 1
62 44 1
62 47 1
62 48 1
62 49 1
62 52 1
62 53 1
62 55 1
62 56 1
62 57 1
62 60 1
62 61 1
63 4 1
63 6 1
63 11 1
63 15 1
63 16 1
63 19 1
63 21 1
63 22 1
63 28 1
63 32 1
63 35 1
63 37 1
63 43 1
63 46 1
63 47 1
63 48 1
63 49 1
63 50 1
63 51 1
63 52 1
63 53 1
63 55 1
63 56 1
63 59 1
63 60 1
63 61 1
63 62 1
64 3 1
64 4 1
64 9 1
64 10 1
64 13 1
64 15 1
64 17 1
64 18 1
64 19 1
64 22 1
64 23 1
64 24 1
64 25 1
64 26 1
64 29 1
64 31 1
64 32 1
64 36 1
64 37 1
64 38 1
64 41 1
64 44 1
64 47 1
64 48 1
64 50 1
64 52 1
64 55 1
64 56 1
64 58 1
64 59 1
64 62 1
65 0 1
65 3 1
65 4 1
65 5 1
65 7 1
65 8 1
65 12 1
65 13 1
65 14 1
65 17 1
65 18 1
65 19 1
65 20 1
65 21 1
65 22 1
65 23 1
65 24 1
65 26 1
65 27 1
65 29 1
65 30 1
65 31 1
65 34 1
65 35 1
65 37 1
65 39 1
65 40 1
65 41 1
65 42 1
65 43 1
65 48 1
65 51 1
65 55 1
65 56 1
65 57 1
65 58 1
65 60 1
65 62 1
65 64 1
66 2 1
66 3 1
66 4 1
66 6 1
66 8 1
66 9 1
66 10 1
66 11 1
66 13 1
66 14 1
66 15 1
66 17 1
66 18 1
66 19 1
66 22 1
66 23 1
66 24 1
66 26 1
66 27 1
66 30 1
66 33 1
66 35 1
66 38 1
66 39 1
66 40 1
66 42 1
66 43 1
66 44 1
66 45 1
66 47 1
66 49 1
66 52 1
66 53 1
66 54 1
66 55 1
66 56 1
66 57 1
66 65 1
67 1 1
67 3 1
67 5 1
67 9 1
67 10 1
67 14 1
67 16 1
67 17 1
67 19 1
67 21 1
67 27 1
67 29 1
67 37 1
67 39 1
67 40 1
67 41 1
67 42 1
67 45 1
67 46 1
67 49 1
67 51 1
67 54 1
67 55 1
67 58 1
67 62 1
67 63 1
67 64 1
67 65 1
68 0 1
68 2 1
68 4 1
68 6 1
68 7 1
68 9 1
68 12 1
68 13 1
68 14 1
68 15 1
68 16 1
68 17 1
68 21 1
68 24 1
68 28 1
68 29 1
68 30 1
68 32 1
68 33 1
68 34 1
68 38 1
68 39 1
68 41 1
68 42 1
68 44 1
68 46 1
68 47 1
68 49 1
68 50 1
68 52 1
68 54 1
68 58 1
68 59 1
68 60 1
68 61 1
68 63 1
68 65 1
68 66 1
69 0 1
69 3 1
69 4 1
69 5 1
69 11 1
69 13 1
69 18 1
69 20 1
69 21 1
69 27 1
69 29 1
69 33 1
69 34 1
69 35 1
69 36 1
69 37 1
69 38 1
69 44 1
69 45 1
69 46 1
69 47 1
69 50 1
69 53 1
69 56 1
69 61 1
69 65 1
69 67 1
69 68 1
70 0 1
70 1 1
70 2 1
70 3 1
70 5 1
70 8 1
70 9 1
70 12 1
70 15 1
70 19 1
70 25 1
70 27 1
70 29 1
70 31 1
70 32 1
70 35 1
70 37 1
70 39 1
70 42 1
70 43 1
70 44 1
70 50 1
70 54 1
70 55 1
70 59 1
70 60 1
70 66 1
71 0 1
71 1 1
71 3 1
71 4 1
71 6 1
71 7 1
71 10 1
71 14 1
71 18 1
71 19 1
71 21 1
71 23 1
71 24 1
71 27 1
71 32 1
71 41 1
71 44 1
71 45 1
71 46 1
71 49 1
71 50 1
71 51 1
71 53 1
71 56 1
71 59 1
71 62 1
71 65 1
71 67 1
71 68 1
71 69 1
72 0 1
72 3 1
72 4 1
72 5 1
72 9 1
72 11 1
72 13 1
72 14 1
72 15 1
72 16 1
72 21 1
72 25 1
72 30 1
72 31 1
72 32 1
72 33 1
72 37 1
72 38 1
72 39 1
72 40 1
72 41 1
72 43 1
72 44 1
72 47 1
72 52 1
72 53 1
72 54 1
72 55 1
72 56 1
72 57 1
72 58 1
72 60 1
72 64 1
72 66 1
72 68 1
72 69 1
72 70 1
73 2 1
73 3 1
73 7 1
73 8 1
73 9 1
73 11 1
73 12 1
73 14 1
73 18 1
73 19 1
73 23 1
73 25 1
73 26 1
73 28 1
73 29 1
73 31 1
73 32 1
73 35 1
73 36 1
73 39 1
73 40 1
73 44 1
73 46 1
73 48 1
73 50 1
73 52 1
73 53 1
73 54 1
73 57 1
73 58 1
73 60 1
73 61 1
73 62 1
73 63 1
73 65 1
73 67 1
73 68 1
73 69 1
73 71 1
74 0 1
74 1 1
74 4 1
74 5 1
74 6 1
74 7 1
74 9 1
74 12 1
74 15 1
74 16 1
74 17 1
74 19 1
74 20 1
74 21 1
74 22 1
74 23 1
74 24 1
74 25 1
74 29 1
74 30 1
74 31 1
74 34 1
74 38 1
74 41 1
74 43 1
74 44 1
74 45 1
74 47 1
74 48 1
74 49 1
74 52 1
74 53 1
74 54 1
74 55 1
74 59 1
74 60 1
74 61 1
74 62 1
74 63 1
74 64 1
74 67 1
74 68 1
74 69 1
74 71 1
74 73 1
